presolving:
(round 1, fast)       304 del vars, 308 del conss, 0 add conss, 300 chg bounds, 0 chg sides, 0 chg coeffs, 0 upgd conss, 0 impls, 1000 clqs
(round 2, fast)       404 del vars, 308 del conss, 0 add conss, 300 chg bounds, 0 chg sides, 0 chg coeffs, 0 upgd conss, 0 impls, 1000 clqs
   (0.0s) running MILP presolver
   (0.0s) MILP presolver found nothing
(round 3, exhaustive) 404 del vars, 308 del conss, 0 add conss, 300 chg bounds, 0 chg sides, 0 chg coeffs, 1105 upgd conss, 0 impls, 1000 clqs
   (0.1s) probing: 51/1005 (5.1%) - 0 fixings, 0 aggregations, 0 implications, 0 bound changes
   (0.1s) probing aborted: 50/50 successive totally useless probings
   (0.1s) symmetry computation started: requiring (bin +, int -, cont +), (fixed: bin -, int +, cont -)
   (0.1s) no symmetry present
presolving (4 rounds: 4 fast, 2 medium, 2 exhaustive):
 404 deleted vars, 308 deleted constraints, 0 added constraints, 300 tightened bounds, 0 added holes, 0 changed sides, 5 changed coefficients
 0 implications, 1000 cliques
presolved problem has 1005 variables (1005 bin, 0 int, 0 impl, 0 cont) and 1105 constraints
      5 constraints of type <knapsack>
   1000 constraints of type <setppc>
    100 constraints of type <logicor>
Presolving Time: 0.06

 time | node  | left  |LP iter|LP it/n|mem/heur|mdpt |vars |cons |rows |cuts |sepa|confs|strbr|  dualbound   | primalbound  |  gap   | compl. 
p 0.1s|     1 |     0 |     0 |     - |   locks|   0 |1005 |1106 |1105 |   0 |  0 |   0 |   0 | 9.411045e+06 | 1.163787e+07 |  23.66%| unknown
  0.1s|     1 |     0 |   186 |     - |    14M |   0 |1005 |1168 |1105 |   0 |  0 |  62 |   0 | 1.162204e+07 | 1.163787e+07 |   0.14%| unknown
r 0.1s|     1 |     0 |   186 |     - |shifting|   0 |1005 |1168 | 105 |   0 |  0 |  62 |   0 | 1.162204e+07 | 1.163018e+07 |   0.07%| unknown
  0.1s|     1 |     0 |   186 |     - |    14M |   0 |1005 |1168 | 105 |   0 |  0 |  62 |   0 | 1.162204e+07 | 1.163018e+07 |   0.07%| unknown
  0.1s|     1 |     0 |   192 |     - |    15M |   0 |1005 | 168 | 110 |   5 |  1 |  62 |   0 | 1.162204e+07 | 1.163018e+07 |   0.07%| unknown
  0.1s|     1 |     0 |   201 |     - |    15M |   0 |1005 | 168 | 115 |  10 |  2 |  62 |   0 | 1.162205e+07 | 1.163018e+07 |   0.07%| unknown
  0.2s|     1 |     0 |   211 |     - |    16M |   0 |1005 | 168 | 120 |  15 |  3 |  62 |   0 | 1.162205e+07 | 1.163018e+07 |   0.07%| unknown
r 0.2s|     1 |     0 |   211 |     - |shifting|   0 |1005 | 168 | 120 |  15 |  3 |  62 |   0 | 1.162205e+07 | 1.163017e+07 |   0.07%| unknown
  0.2s|     1 |     0 |   225 |     - |    17M |   0 |1005 | 168 | 125 |  20 |  4 |  62 |   0 | 1.162205e+07 | 1.163017e+07 |   0.07%| unknown
  0.3s|     1 |     0 |   249 |     - |    19M |   0 |1005 | 168 | 130 |  25 |  5 |  62 |   0 | 1.162206e+07 | 1.163017e+07 |   0.07%| unknown
r 0.3s|     1 |     0 |   249 |     - |shifting|   0 |1005 | 168 | 130 |  25 |  5 |  62 |   0 | 1.162206e+07 | 1.162768e+07 |   0.05%| unknown
  0.5s|     1 |     0 |   269 |     - |    21M |   0 |1005 | 168 | 134 |  29 |  6 |  62 |   0 | 1.162207e+07 | 1.162768e+07 |   0.05%| unknown
  0.5s|     1 |     0 |   287 |     - |    23M |   0 |1005 | 168 | 139 |  34 |  7 |  62 |   0 | 1.162207e+07 | 1.162768e+07 |   0.05%| unknown
  0.6s|     1 |     0 |   322 |     - |    23M |   0 |1005 | 168 | 144 |  39 |  8 |  62 |   0 | 1.162207e+07 | 1.162768e+07 |   0.05%| unknown
  0.6s|     1 |     0 |   330 |     - |    24M |   0 |1005 | 168 | 149 |  44 |  9 |  62 |   0 | 1.162207e+07 | 1.162768e+07 |   0.05%| unknown
 time | node  | left  |LP iter|LP it/n|mem/heur|mdpt |vars |cons |rows |cuts |sepa|confs|strbr|  dualbound   | primalbound  |  gap   | compl. 
  0.7s|     1 |     0 |   359 |     - |    26M |   0 |1005 | 168 | 154 |  49 | 10 |  62 |   0 | 1.162208e+07 | 1.162768e+07 |   0.05%| unknown
  0.7s|     1 |     0 |   429 |     - |    26M |   0 |1005 | 168 | 159 |  54 | 11 |  62 |   0 | 1.162209e+07 | 1.162768e+07 |   0.05%| unknown
r 0.7s|     1 |     0 |   429 |     - |shifting|   0 |1005 | 168 | 159 |  54 | 11 |  62 |   0 | 1.162209e+07 | 1.162515e+07 |   0.03%| unknown
L 0.9s|     1 |     0 |   971 |     - |    rens|   0 |1005 | 168 | 159 |  54 | 11 |  62 |   0 | 1.162209e+07 | 1.162264e+07 |   0.00%| unknown
  0.9s|     1 |     0 |   971 |     - |    26M |   0 |1005 | 168 | 159 |  54 | 11 |  62 |   0 | 1.162209e+07 | 1.162264e+07 |   0.00%| unknown
  0.9s|     1 |     0 |   982 |     - |    26M |   0 |1005 | 168 | 163 |  58 | 12 |  62 |   0 | 1.162209e+07 | 1.162264e+07 |   0.00%| unknown
  0.9s|     1 |     0 |   986 |     - |    27M |   0 |1005 | 168 | 164 |  59 | 13 |  62 |   0 | 1.162209e+07 | 1.162264e+07 |   0.00%| unknown
  1.0s|     1 |     2 |   986 |     - |    27M |   0 |1005 | 168 | 164 |  59 | 13 |  62 |  19 | 1.162210e+07 | 1.162264e+07 |   0.00%| unknown
  4.2s|   100 |   101 |  3373 |  29.6 |    49M |  20 |1005 | 174 | 151 | 132 |  2 |  68 | 444 | 1.162210e+07 | 1.162264e+07 |   0.00%| unknown
r 5.2s|   118 |   117 |  5433 |  42.7 |shifting|  22 |1005 | 174 | 149 | 152 |  2 |  68 | 470 | 1.162210e+07 | 1.162258e+07 |   0.00%| unknown
r 5.3s|   118 |   117 |  5440 |  42.7 |shifting|  22 |1005 | 174 | 152 | 155 |  3 |  68 | 470 | 1.162210e+07 | 1.162257e+07 |   0.00%| unknown
  6.9s|   200 |   201 |  7350 |  34.7 |    70M |  23 |1005 | 176 | 142 | 198 |  2 |  70 | 498 | 1.162210e+07 | 1.162257e+07 |   0.00%| unknown
  8.6s|   300 |   301 |  9779 |  31.2 |    85M |  23 |1005 | 177 | 143 | 262 |  2 |  71 | 519 | 1.162210e+07 | 1.162257e+07 |   0.00%| unknown
L 8.8s|   318 |   319 | 10189 |  30.7 |    rins|  23 |1005 | 177 | 135 | 268 |  1 |  71 | 526 | 1.162210e+07 | 1.162255e+07 |   0.00%| unknown
 10.2s|   400 |   401 | 13258 |  32.1 |    88M |  23 |1005 | 178 | 142 | 326 |  1 |  72 | 544 | 1.162210e+07 | 1.162255e+07 |   0.00%| unknown
 time | node  | left  |LP iter|LP it/n|mem/heur|mdpt |vars |cons |rows |cuts |sepa|confs|strbr|  dualbound   | primalbound  |  gap   | compl. 
 11.9s|   500 |   501 | 16862 |  32.9 |    89M |  23 |1005 | 179 | 143 | 397 |  1 |  73 | 595 | 1.162210e+07 | 1.162255e+07 |   0.00%| unknown
 15.2s|   600 |   601 | 21296 |  34.8 |   105M |  23 |1005 | 183 | 137 | 522 |  1 |  94 | 607 | 1.162210e+07 | 1.162255e+07 |   0.00%| unknown
 19.0s|   700 |   701 | 25188 |  35.4 |   116M |  23 |1005 | 181 | 143 | 623 |  2 | 127 | 617 | 1.162211e+07 | 1.162255e+07 |   0.00%| unknown
 21.4s|   800 |   801 | 28726 |  35.4 |   131M |  23 |1005 | 184 | 148 | 690 |  1 | 131 | 627 | 1.162212e+07 | 1.162255e+07 |   0.00%| unknown
 23.8s|   900 |   901 | 33182 |  36.4 |   138M |  23 |1005 | 190 | 140 | 737 |  1 | 143 | 633 | 1.162212e+07 | 1.162255e+07 |   0.00%| unknown
 24.7s|  1000 |  1001 | 35924 |  35.5 |   140M |  23 |1005 | 191 | 140 | 760 |  1 | 148 | 636 | 1.162213e+07 | 1.162255e+07 |   0.00%| unknown
Restart triggered after 50 consecutive estimations that the remaining tree will be large
(run 1, node 1049) performing user restart

(restart) converted 8 cuts from the global cut pool into linear constraints

presolving:
(round 1, fast)       122 del vars, 53 del conss, 0 add conss, 0 chg bounds, 0 chg sides, 117 chg coeffs, 0 upgd conss, 0 impls, 0 clqs
   (25.5s) running MILP presolver
   (25.5s) MILP presolver found nothing
(round 2, exhaustive) 122 del vars, 53 del conss, 0 add conss, 0 chg bounds, 0 chg sides, 117 chg coeffs, 8 upgd conss, 0 impls, 0 clqs
presolving (3 rounds: 3 fast, 2 medium, 2 exhaustive):
 122 deleted vars, 53 deleted constraints, 0 added constraints, 0 tightened bounds, 0 added holes, 0 changed sides, 117 changed coefficients
 0 implications, 0 cliques
presolved problem has 883 variables (883 bin, 0 int, 0 impl, 0 cont) and 148 constraints
     12 constraints of type <knapsack>
    136 constraints of type <logicor>
Presolving Time: 0.13
transformed 100/100 original solutions to the transformed problem space

 time | node  | left  |LP iter|LP it/n|mem/heur|mdpt |vars |cons |rows |cuts |sepa|confs|strbr|  dualbound   | primalbound  |  gap   | compl. 
 25.6s|     1 |     0 | 37306 |     - |   113M |   0 | 883 | 148 | 113 |   0 |  0 | 214 | 637 | 1.162234e+07 | 1.162255e+07 |   0.00%| unknown
 25.6s|     1 |     0 | 37306 |     - |   113M |   0 | 883 | 148 | 113 |   0 |  0 | 214 | 637 | 1.162234e+07 | 1.162255e+07 |   0.00%| unknown
 25.6s|     1 |     0 | 37313 |     - |   113M |   0 | 883 | 148 | 118 |   5 |  1 | 214 | 637 | 1.162234e+07 | 1.162255e+07 |   0.00%| unknown
 25.7s|     1 |     0 | 37322 |     - |   113M |   0 | 883 | 148 | 123 |  10 |  2 | 214 | 637 | 1.162235e+07 | 1.162255e+07 |   0.00%| unknown
 25.7s|     1 |     0 | 37322 |     - |   113M |   0 | 883 | 148 | 123 |  10 |  2 | 214 | 637 | 1.162235e+07 | 1.162255e+07 |   0.00%| unknown
 25.8s|     1 |     0 | 37336 |     - |   113M |   0 | 883 | 148 | 128 |  15 |  3 | 214 | 637 | 1.162235e+07 | 1.162255e+07 |   0.00%| unknown
 25.8s|     1 |     0 | 37336 |     - |   113M |   0 | 883 | 148 | 128 |  15 |  3 | 214 | 637 | 1.162235e+07 | 1.162255e+07 |   0.00%| unknown
 25.8s|     1 |     0 | 37350 |     - |   113M |   0 | 883 | 148 | 133 |  20 |  4 | 214 | 637 | 1.162235e+07 | 1.162255e+07 |   0.00%| unknown
 25.8s|     1 |     0 | 37350 |     - |   113M |   0 | 883 | 148 | 133 |  20 |  4 | 214 | 637 | 1.162235e+07 | 1.162255e+07 |   0.00%| unknown
 25.9s|     1 |     0 | 37360 |     - |   113M |   0 | 883 | 148 | 138 |  25 |  5 | 214 | 637 | 1.162235e+07 | 1.162255e+07 |   0.00%| unknown
 25.9s|     1 |     0 | 37360 |     - |   113M |   0 | 883 | 148 | 138 |  25 |  5 | 214 | 637 | 1.162235e+07 | 1.162255e+07 |   0.00%| unknown
 26.0s|     1 |     0 | 37369 |     - |   113M |   0 | 883 | 148 | 143 |  30 |  6 | 214 | 637 | 1.162236e+07 | 1.162255e+07 |   0.00%| unknown
 26.0s|     1 |     0 | 37369 |     - |   113M |   0 | 883 | 148 | 143 |  30 |  6 | 214 | 637 | 1.162236e+07 | 1.162255e+07 |   0.00%| unknown
 26.1s|     1 |     0 | 37379 |     - |   113M |   0 | 883 | 148 | 148 |  35 |  7 | 214 | 637 | 1.162236e+07 | 1.162255e+07 |   0.00%| unknown
 26.1s|     1 |     0 | 37379 |     - |   113M |   0 | 883 | 148 | 148 |  35 |  7 | 214 | 637 | 1.162236e+07 | 1.162255e+07 |   0.00%| unknown
 time | node  | left  |LP iter|LP it/n|mem/heur|mdpt |vars |cons |rows |cuts |sepa|confs|strbr|  dualbound   | primalbound  |  gap   | compl. 
 26.3s|     1 |     0 | 37388 |     - |   113M |   0 | 883 | 148 | 152 |  39 |  8 | 214 | 637 | 1.162236e+07 | 1.162255e+07 |   0.00%| unknown
 26.4s|     1 |     0 | 37399 |     - |   113M |   0 | 883 | 148 | 156 |  43 |  9 | 214 | 637 | 1.162236e+07 | 1.162255e+07 |   0.00%| unknown
 26.4s|     1 |     0 | 37399 |     - |   113M |   0 | 883 | 148 | 156 |  43 |  9 | 214 | 637 | 1.162236e+07 | 1.162255e+07 |   0.00%| unknown
 26.5s|     1 |     0 | 37408 |     - |   113M |   0 | 883 | 148 | 159 |  46 | 10 | 214 | 637 | 1.162236e+07 | 1.162255e+07 |   0.00%| unknown
 26.6s|     1 |     0 | 37419 |     - |   113M |   0 | 883 | 148 | 160 |  47 | 11 | 214 | 637 | 1.162236e+07 | 1.162255e+07 |   0.00%| unknown
 26.6s|     1 |     0 | 37419 |     - |   113M |   0 | 883 | 148 | 160 |  47 | 11 | 214 | 637 | 1.162236e+07 | 1.162255e+07 |   0.00%| unknown
(run 2, node 1) restarting after 89 global fixings of integer variables

(restart) converted 12 cuts from the global cut pool into linear constraints

presolving:
(round 1, fast)       89 del vars, 0 del conss, 0 add conss, 0 chg bounds, 0 chg sides, 90 chg coeffs, 0 upgd conss, 0 impls, 0 clqs
(round 2, exhaustive) 89 del vars, 0 del conss, 0 add conss, 0 chg bounds, 0 chg sides, 90 chg coeffs, 12 upgd conss, 0 impls, 0 clqs
presolving (3 rounds: 3 fast, 2 medium, 2 exhaustive):
 89 deleted vars, 0 deleted constraints, 0 added constraints, 0 tightened bounds, 0 added holes, 0 changed sides, 90 changed coefficients
 0 implications, 0 cliques
presolved problem has 794 variables (794 bin, 0 int, 0 impl, 0 cont) and 164 constraints
     24 constraints of type <knapsack>
    140 constraints of type <logicor>
Presolving Time: 0.18
transformed 87/100 original solutions to the transformed problem space

 time | node  | left  |LP iter|LP it/n|mem/heur|mdpt |vars |cons |rows |cuts |sepa|confs|strbr|  dualbound   | primalbound  |  gap   | compl. 
 26.8s|     1 |     0 | 38063 |     - |   111M |   0 | 794 | 164 | 125 |   0 |  0 | 218 | 637 | 1.162236e+07 | 1.162255e+07 |   0.00%| unknown
 26.9s|     1 |     0 | 38075 |     - |   111M |   0 | 794 | 164 | 130 |   5 |  1 | 218 | 637 | 1.162236e+07 | 1.162255e+07 |   0.00%| unknown
 27.0s|     1 |     0 | 38082 |     - |   111M |   0 | 794 | 164 | 135 |  10 |  2 | 218 | 637 | 1.162236e+07 | 1.162255e+07 |   0.00%| unknown
 27.2s|     1 |     0 | 38092 |     - |   111M |   0 | 794 | 164 | 140 |  15 |  3 | 218 | 637 | 1.162236e+07 | 1.162255e+07 |   0.00%| unknown
 27.4s|     1 |     0 | 38099 |     - |   111M |   0 | 794 | 164 | 144 |  19 |  4 | 218 | 637 | 1.162236e+07 | 1.162255e+07 |   0.00%| unknown
 27.4s|     1 |     0 | 38109 |     - |   111M |   0 | 794 | 164 | 149 |  24 |  5 | 218 | 637 | 1.162236e+07 | 1.162255e+07 |   0.00%| unknown
 27.6s|     1 |     0 | 38121 |     - |   112M |   0 | 794 | 164 | 153 |  28 |  6 | 218 | 637 | 1.162236e+07 | 1.162255e+07 |   0.00%| unknown
 27.7s|     1 |     0 | 38147 |     - |   114M |   0 | 794 | 164 | 156 |  31 |  7 | 218 | 637 | 1.162236e+07 | 1.162255e+07 |   0.00%| unknown
 27.8s|     1 |     0 | 38163 |     - |   115M |   0 | 794 | 164 | 161 |  36 |  8 | 218 | 637 | 1.162236e+07 | 1.162255e+07 |   0.00%| unknown
 28.0s|     1 |     0 | 38180 |     - |   118M |   0 | 794 | 164 | 166 |  41 |  9 | 218 | 637 | 1.162236e+07 | 1.162255e+07 |   0.00%| unknown
 28.0s|     1 |     0 | 38180 |     - |   118M |   0 | 794 | 164 | 166 |  41 |  9 | 218 | 637 | 1.162236e+07 | 1.162255e+07 |   0.00%| unknown
 28.1s|     1 |     0 | 38198 |     - |   120M |   0 | 794 | 164 | 171 |  46 | 10 | 218 | 637 | 1.162236e+07 | 1.162255e+07 |   0.00%| unknown
 28.2s|     1 |     0 | 38209 |     - |   120M |   0 | 794 | 164 | 173 |  48 | 11 | 218 | 637 | 1.162236e+07 | 1.162255e+07 |   0.00%| unknown
 28.2s|     1 |     0 | 38225 |     - |   120M |   0 | 794 | 164 | 174 |  49 | 12 | 218 | 637 | 1.162236e+07 | 1.162255e+07 |   0.00%| unknown
 28.2s|     1 |     0 | 38225 |     - |   120M |   0 | 794 | 164 | 174 |  49 | 12 | 218 | 637 | 1.162236e+07 | 1.162255e+07 |   0.00%| unknown
 time | node  | left  |LP iter|LP it/n|mem/heur|mdpt |vars |cons |rows |cuts |sepa|confs|strbr|  dualbound   | primalbound  |  gap   | compl. 
 28.5s|     1 |     2 | 38652 |     - |   120M |   0 | 794 | 166 | 174 |  49 | 12 | 220 | 659 | 1.162236e+07 | 1.162255e+07 |   0.00%| unknown
 31.5s|   100 |   101 | 41374 |  35.0 |   137M |  23 | 794 | 174 | 154 |  77 |  1 | 228 | 961 | 1.162237e+07 | 1.162255e+07 |   0.00%| unknown
 33.0s|   200 |   201 | 46208 |  36.1 |   140M |  25 | 794 | 183 | 152 |  90 |  1 | 237 |1059 | 1.162237e+07 | 1.162255e+07 |   0.00%| unknown
 34.5s|   300 |   301 | 47966 |  34.7 |   141M |  43 | 794 | 194 | 153 | 114 |  1 | 248 |1160 | 1.162237e+07 | 1.162255e+07 |   0.00%| unknown
 36.1s|   400 |   401 | 50298 |  33.9 |   141M |  43 | 794 | 200 | 155 | 141 |  1 | 254 |1213 | 1.162237e+07 | 1.162255e+07 |   0.00%| unknown
 39.2s|   500 |   501 | 53003 |  33.5 |   141M |  43 | 794 | 204 | 163 | 244 |  1 | 258 |1267 | 1.162237e+07 | 1.162255e+07 |   0.00%| unknown
L39.7s|   518 |   463 | 53524 |  33.4 |crossove|  43 | 794 | 170 | 159 | 259 |  2 | 259 |1267 | 1.162237e+07 | 1.162244e+07 |   0.00%| unknown
 43.0s|   600 |   519 | 56245 |  33.4 |   152M |  43 | 794 | 186 | 159 | 431 |  2 | 277 |1282 | 1.162237e+07 | 1.162244e+07 |   0.00%| unknown
*44.0s|   655 |   482 | 57337 |  33.0 |strongbr|  43 | 794 | 201 | 158 | 492 |  1 | 293 |1297 | 1.162237e+07 | 1.162242e+07 |   0.00%| unknown
 44.3s|   700 |   493 | 57868 |  32.4 |   154M |  43 | 794 | 208 | 160 | 516 |  1 | 304 |1309 | 1.162237e+07 | 1.162242e+07 |   0.00%| unknown
 46.1s|   800 |   533 | 60071 |  31.9 |   152M |  43 | 794 | 224 | 154 | 652 |  1 | 333 |1320 | 1.162237e+07 | 1.162242e+07 |   0.00%|   5.76%
 48.6s|   900 |   568 | 62868 |  31.7 |   153M |  43 | 794 | 207 | 169 | 797 |  0 | 357 |1339 | 1.162237e+07 | 1.162242e+07 |   0.00%|   7.96%
 49.3s|  1000 |   623 | 64637 |  31.0 |   153M |  43 | 794 | 218 | 156 | 880 |  2 | 407 |1361 | 1.162237e+07 | 1.162242e+07 |   0.00%|   8.61%
 49.9s|  1100 |   653 | 66240 |  30.3 |   149M |  43 | 794 | 226 | 157 | 930 |  0 | 456 |1375 | 1.162237e+07 | 1.162242e+07 |   0.00%|   9.26%
 50.2s|  1200 |   683 | 67323 |  29.4 |   149M |  43 | 794 | 228 | 153 | 953 |  0 | 487 |1387 | 1.162237e+07 | 1.162242e+07 |   0.00%|   9.68%
 time | node  | left  |LP iter|LP it/n|mem/heur|mdpt |vars |cons |rows |cuts |sepa|confs|strbr|  dualbound   | primalbound  |  gap   | compl. 
 51.5s|  1300 |   697 | 69019 |  28.9 |   148M |  43 | 794 | 220 | 158 |1020 |  0 | 524 |1396 | 1.162237e+07 | 1.162242e+07 |   0.00%|  10.35%
 52.3s|  1400 |   747 | 70853 |  28.5 |   148M |  43 | 794 | 228 | 155 |1091 |  2 | 548 |1408 | 1.162237e+07 | 1.162242e+07 |   0.00%|  10.88%
*52.6s|  1460 |   729 | 71589 |  28.1 |    LP  |  43 | 794 | 240 | 164 |1122 |  2 | 568 |1413 | 1.162237e+07 | 1.162242e+07 |   0.00%|  11.19%
 53.0s|  1500 |   753 | 72333 |  27.9 |   150M |  43 | 794 | 233 | 164 |1136 |  2 | 573 |1413 | 1.162237e+07 | 1.162242e+07 |   0.00%|  11.40%
 54.0s|  1600 |   791 | 74436 |  27.7 |   155M |  43 | 794 | 246 | 168 |1202 |  0 | 616 |1437 | 1.162237e+07 | 1.162242e+07 |   0.00%|  11.70%
*55.3s|  1673 |   728 | 76120 |  27.5 |    LP  |  43 | 794 | 260 | 166 |1277 |  3 | 636 |1455 | 1.162237e+07 | 1.162242e+07 |   0.00%|  12.13%
 55.4s|  1700 |   739 | 76575 |  27.4 |   159M |  43 | 794 | 249 | 157 |1280 |  2 | 637 |1460 | 1.162237e+07 | 1.162242e+07 |   0.00%|  12.17%
*55.5s|  1729 |   660 | 76972 |  27.3 |    LP  |  43 | 794 | 239 | 166 |1283 |  3 | 639 |1463 | 1.162237e+07 | 1.162241e+07 |   0.00%|  12.27%
 55.8s|  1800 |   687 | 78095 |  27.0 |   159M |  43 | 794 | 266 | 166 |1285 |  2 | 678 |1478 | 1.162237e+07 | 1.162241e+07 |   0.00%|  12.36%
*55.8s|  1803 |   653 | 78160 |  27.0 |    LP  |  43 | 794 | 267 | 166 |1285 |  2 | 680 |1480 | 1.162237e+07 | 1.162241e+07 |   0.00%|  12.47%
 56.1s|  1900 |   662 | 79277 |  26.5 |   159M |  43 | 794 | 244 | 169 |1298 |  1 | 706 |1482 | 1.162237e+07 | 1.162241e+07 |   0.00%|  13.41%
 56.9s|  2000 |   656 | 80807 |  26.1 |   159M |  43 | 794 | 227 | 170 |1343 |  1 | 748 |1494 | 1.162237e+07 | 1.162241e+07 |   0.00%|  14.32%
 57.9s|  2100 |   676 | 82456 |  25.8 |   159M |  43 | 794 | 222 | 162 |1396 |  0 | 782 |1499 | 1.162238e+07 | 1.162241e+07 |   0.00%|  14.83%
 59.1s|  2200 |   702 | 84525 |  25.7 |   161M |  43 | 794 | 222 | 164 |1479 |  0 | 823 |1509 | 1.162238e+07 | 1.162241e+07 |   0.00%|  15.44%
 59.4s|  2300 |   737 | 85875 |  25.3 |   161M |  43 | 794 | 240 | 164 |1509 |  0 | 875 |1514 | 1.162238e+07 | 1.162241e+07 |   0.00%|  15.47%
 time | node  | left  |LP iter|LP it/n|mem/heur|mdpt |vars |cons |rows |cuts |sepa|confs|strbr|  dualbound   | primalbound  |  gap   | compl. 
 59.7s|  2400 |   741 | 86971 |  24.9 |   161M |  43 | 794 | 237 | 159 |1532 |  0 | 911 |1522 | 1.162238e+07 | 1.162241e+07 |   0.00%|  15.92%
 61.0s|  2500 |   777 | 89002 |  24.8 |   161M |  43 | 794 | 245 | 164 |1622 |  1 | 940 |1535 | 1.162238e+07 | 1.162241e+07 |   0.00%|  16.30%
 61.4s|  2600 |   772 | 90285 |  24.4 |   161M |  43 | 794 | 243 | 157 |1649 |  0 | 978 |1537 | 1.162238e+07 | 1.162241e+07 |   0.00%|  16.39%
 61.8s|  2700 |   792 | 91456 |  24.1 |   161M |  43 | 794 | 274 | 168 |1677 |  2 |1017 |1538 | 1.162238e+07 | 1.162241e+07 |   0.00%|  16.65%
 62.2s|  2800 |   818 | 92727 |  23.8 |   161M |  43 | 794 | 274 | 159 |1696 |  2 |1046 |1538 | 1.162238e+07 | 1.162241e+07 |   0.00%|  16.90%
 63.1s|  2900 |   842 | 94074 |  23.5 |   161M |  43 | 794 | 295 | 159 |1749 |  0 |1115 |1547 | 1.162238e+07 | 1.162241e+07 |   0.00%|  17.59%
 63.5s|  3000 |   834 | 95166 |  23.2 |   161M |  43 | 794 | 300 | 168 |1788 |  2 |1162 |1548 | 1.162238e+07 | 1.162241e+07 |   0.00%|  18.13%
 64.0s|  3100 |   850 | 96858 |  23.1 |   161M |  43 | 794 | 288 | 162 |1822 |  7 |1201 |1553 | 1.162238e+07 | 1.162241e+07 |   0.00%|  18.49%
 64.7s|  3200 |   876 | 98772 |  23.0 |   161M |  43 | 794 | 261 | 170 |1867 |  1 |1223 |1563 | 1.162238e+07 | 1.162241e+07 |   0.00%|  19.12%
 65.6s|  3300 |   908 |100575 |  22.9 |   162M |  43 | 794 | 246 | 170 |1932 |  0 |1242 |1570 | 1.162238e+07 | 1.162241e+07 |   0.00%|  19.43%
 66.1s|  3400 |   954 |102309 |  22.7 |   162M |  43 | 794 | 249 | 164 |1973 |  2 |1269 |1573 | 1.162238e+07 | 1.162241e+07 |   0.00%|  19.48%
 66.4s|  3500 |   978 |103718 |  22.5 |   160M |  43 | 794 | 281 | 163 |1998 |  2 |1315 |1576 | 1.162238e+07 | 1.162241e+07 |   0.00%|  20.03%
 66.6s|  3600 |   980 |104635 |  22.3 |   160M |  43 | 794 | 273 | 168 |2001 |  0 |1333 |1580 | 1.162238e+07 | 1.162241e+07 |   0.00%|  20.50%
 67.1s|  3700 |   984 |105837 |  22.0 |   160M |  43 | 794 | 261 | 159 |2040 |  2 |1351 |1584 | 1.162238e+07 | 1.162241e+07 |   0.00%|  20.65%
 67.6s|  3800 |   986 |107027 |  21.8 |   160M |  43 | 794 | 249 | 172 |2085 |  2 |1366 |1587 | 1.162238e+07 | 1.162241e+07 |   0.00%|  21.18%
 time | node  | left  |LP iter|LP it/n|mem/heur|mdpt |vars |cons |rows |cuts |sepa|confs|strbr|  dualbound   | primalbound  |  gap   | compl. 
 68.0s|  3900 |   996 |108333 |  21.7 |   160M |  43 | 794 | 252 | 165 |2097 |  0 |1384 |1590 | 1.162238e+07 | 1.162241e+07 |   0.00%|  21.24%
 68.3s|  4000 |  1008 |109636 |  21.5 |   160M |  43 | 794 | 316 | 163 |2118 |  2 |1464 |1599 | 1.162238e+07 | 1.162241e+07 |   0.00%|  21.29%
 69.0s|  4100 |  1024 |110774 |  21.3 |   161M |  43 | 794 | 301 | 166 |2166 |  0 |1480 |1604 | 1.162238e+07 | 1.162241e+07 |   0.00%|  21.36%
 69.3s|  4200 |  1045 |111991 |  21.1 |   161M |  43 | 794 | 302 | 161 |2184 |  2 |1524 |1606 | 1.162238e+07 | 1.162241e+07 |   0.00%|  21.45%
*69.7s|  4256 |   224 |112732 |  21.0 |    LP  |  44 | 794 | 314 | 172 |2206 |  1 |1545 |1607 | 1.162238e+07 | 1.162239e+07 |   0.00%|  29.13%
 69.9s|  4300 |   216 |113092 |  20.9 |   161M |  44 | 794 | 266 | 168 |2211 |  0 |1551 |1607 | 1.162238e+07 | 1.162239e+07 |   0.00%|  31.04%
 70.5s|  4400 |   176 |114276 |  20.8 |   165M |  44 | 794 | 174 | 178 |2253 |  4 |1554 |1608 | 1.162238e+07 | 1.162239e+07 |   0.00%|  43.37%
 70.8s|  4500 |   156 |115149 |  20.5 |   166M |  44 | 794 | 156 | 157 |2274 |  2 |1554 |1609 | 1.162238e+07 | 1.162239e+07 |   0.00%|  49.63%
 71.6s|  4600 |   108 |116417 |  20.4 |   172M |  44 | 794 | 146 | 167 |2328 |  2 |1561 |1610 | 1.162238e+07 | 1.162239e+07 |   0.00%|  62.11%
 72.0s|  4700 |    98 |117257 |  20.2 |   172M |  44 | 794 | 145 | 160 |2348 |  2 |1568 |1610 | 1.162238e+07 | 1.162239e+07 |   0.00%|  69.86%
 72.9s|  4800 |    70 |118613 |  20.1 |   178M |  44 | 794 | 140 | 178 |2409 |  0 |1577 |1610 | 1.162238e+07 | 1.162239e+07 |   0.00%|  78.64%
 73.3s|  4900 |    32 |119613 |  19.9 |   178M |  44 | 794 | 144 | 164 |2419 |  0 |1583 |1612 | 1.162238e+07 | 1.162239e+07 |   0.00%|  89.70%

SCIP Status        : problem is solved [optimal solution found]
Solving Time (sec) : 73.44
Solving Nodes      : 4968 (total of 6018 nodes in 3 runs)
Primal Bound       : +1.16223908956916e+07 (393 solutions)
Dual Bound         : +1.16223908956916e+07
Gap                : 0.00 %
Solve Status: optimal
Solve Time: 73.44 seconds
Objective Value: 11622390.90
